NAME : berlin
COMMENT : drilling problem (Ludwig)
TYPE : TSP
DIMENSION: 12
EDGE_WEIGHT_TYPE : EUC_2D
NODE_COORD_SECTION
 1 545.0 535.0
 2 27.0 184.0
 3 345.0 750.0
 4 945.0 685.0
 5 845.0 655.0
 6 890.0 660.0
 7 22.0 230.0
 8 525.0 1020.0
 9 580.0 1125.0
 10 655.0 1130.0
 11 770.0 995.5
 12 834.0 987.5
EOF
